# Solution for model iteration_7
# Objective value = 3.0347703281354278e+01
vars[0] 0
vars[1] 0.001
vars[2] 0.001
vars[3] 30.001
vars[4] 3.0002000000000002e+01
vars[5] 40.002
vars[6] 4.2347703281354271e+01
vars[7] 9.0348703281354275e+01
vars[8] 0
vars[9] 3.0347703281354278e+01
lambda[0] 6.8587240451968157e-01
lambda[1] 0
lambda[2] 0
lambda[3] 0
lambda[4] 3.1412759548031843e-01
lambda[5] 0
lambda[6] 0
